(set-logic QF_S)
(declare-fun var0 () String)
(assert (str.in.re var0 (re.++ (re.union (re.* (str.to.re "000")) (re.* (str.to.re "1"))) (re.++ (re.* (re.union (str.to.re "2") (str.to.re "333"))) (re.++ (re.union (re.+ (str.to.re "4")) (re.+ (str.to.re "55"))) (re.++ (re.+ (re.+ (str.to.re "66"))) (re.++ (re.+ (re.* (str.to.re "777"))) (re.++ (re.* (re.+ (str.to.re "8"))) (re.++ (re.* (re.+ (str.to.re "99"))) (re.++ (re.* (re.+ (str.to.re "a"))) (re.++ (re.* (re.union (str.to.re "b") (str.to.re "ccc"))) (re.++ (re.union (re.+ (str.to.re "ddd")) (re.+ (str.to.re "e"))) (re.++ (re.union (re.union (str.to.re "f") (str.to.re "g")) (re.union (str.to.re "h") (str.to.re "i"))) (re.++ (re.+ (re.+ (str.to.re "jj"))) (re.++ (re.union (re.+ (str.to.re "kk")) (re.+ (str.to.re "ll"))) (re.++ (re.* (re.+ (str.to.re "mm"))) (re.++ (re.+ (re.* (str.to.re "n"))) (re.++ (re.union (re.* (str.to.re "ooo")) (re.* (str.to.re "ppp"))) (re.++ (re.union (re.* (str.to.re "qq")) (re.* (str.to.re "r"))) (re.++ (re.+ (re.union (str.to.re "sss") (str.to.re "tt"))) (re.++ (re.+ (re.union (str.to.re "u") (str.to.re "vvv"))) (re.++ (re.+ (re.+ (str.to.re "www"))) (re.++ (re.union (re.union (str.to.re "xx") (str.to.re "y")) (re.union (str.to.re "zzz") (str.to.re "AA"))) (re.++ (re.* (re.union (str.to.re "B") (str.to.re "CC"))) (re.++ (re.union (re.union (str.to.re "D") (str.to.re "E")) (re.union (str.to.re "FFF") (str.to.re "G"))) (re.++ (re.* (re.* (str.to.re "H"))) (re.++ (re.+ (re.* (str.to.re "II"))) (re.++ (re.+ (re.union (str.to.re "JJ") (str.to.re "KK"))) (re.union (re.+ (str.to.re "L")) (re.+ (str.to.re "MM")))))))))))))))))))))))))))))))
(check-sat)